623, 0, 0, 99, 0
624, 0, 1, 55, 1
625, 0, 2, 36, 2
626, 0, 3, 46, 3
627, 1, 0, 79, 1
628, 1, 1, 56, 0
629, 1, 2, 87, 2
630, 1, 3, 60, 3
631, 2, 0, 50, 3
632, 2, 1, 79, 0
633, 2, 2, 78, 2
634, 2, 3, 54, 1
635, 3, 0, 62, 1
636, 3, 1, 96, 3
637, 3, 2, 80, 2
638, 3, 3, 61, 0
